243/surrogate_problem/sol/surrogate2_37.sol
# Solution for model problem_
# Objective value = 9.5176720992423710e+04
x(0_0) 0
x(0_1) 0
x(0_2) 0
x(0_3) 0
x(0_4) 0
x(0_5) 0
x(0_6) 0
x(0_7) 0
x(0_8) 1
x(0_9) 0
x(0_10) 0
x(0_11) 0
x(0_12) 0
x(0_13) 0
x(0_14) 0
x(0_15) 0
x(0_16) 0
x(0_17) 0
x(1_18) 0
x(1_19) 0
x(1_20) 0
x(1_21) 0
x(1_22) 0
x(1_23) 0
x(1_24) 1
x(1_25) 0
x(1_26) 0
x(1_27) 0
x(1_28) 0
x(1_29) 0
x(1_30) 0
x(2_31) 1
x(2_32) 0
x(2_33) 0
x(2_34) 0
x(2_35) 0
x(2_36) 0
x(2_37) 0
x(2_38) 0
x(2_39) 0
x(2_40) 0
x(2_41) 0
x(2_42) 0
x(2_43) 0
x(2_44) 0
x(2_45) 0
x(2_46) 0
x(2_47) 0
x(3_48) 0
x(3_49) 0
x(3_50) 0
x(3_51) 0
x(3_52) 0
x(3_53) 0
x(3_54) 0
x(3_55) 0
x(3_56) 0
x(3_57) 0
x(3_58) 0
x(3_59) 0
x(3_60) 0
x(3_61) 0
x(3_62) 1
x(3_63) 0
x(4_64) 0
x(4_65) 1
x(4_66) 0
x(4_67) 0
x(4_68) 0
x(4_69) 0
x(4_70) 0
x(4_71) 0
x(4_72) 0
x(4_73) 0
x(4_74) 0
x(4_75) 0
x(5_76) 1
x(5_77) 0
x(5_78) 0
x(5_79) 0
x(5_80) 0
x(5_81) 0
x(5_82) 0
x(5_83) 0
x(5_84) 0
x(5_85) 0
x(5_86) 0
x(5_87) 0
x(6_88) 0
x(6_89) 0
x(6_90) 0
x(6_91) 0
x(6_92) 0
x(6_93) 0
x(6_94) 0
x(6_95) 0
x(6_96) 0
x(6_97) 0
x(6_98) 1
x(7_99) 1
x(7_100) 0
x(7_101) 0
x(7_102) 0
x(7_103) 0
x(7_104) 0
x(7_105) 0
x(7_106) 0
x(7_107) 0
x(7_108) 0
x(7_109) 0
x(7_110) 0
x(8_111) 0
x(8_112) 0
x(8_113) 0
x(8_114) 0
x(8_115) 0
x(8_116) 0
x(8_117) 0
x(8_118) 0
x(8_119) 0
x(8_120) 0
x(8_121) 0
x(8_122) 0
x(8_123) 0
x(8_124) 0
x(8_125) 1
x(8_126) 0
x(9_127) 0
x(9_128) 0
x(9_129) 0
x(9_130) 0
x(9_131) 0
x(9_132) 0
x(9_133) 1
x(9_134) 0
x(9_135) 0
x(9_136) 0
x(10_137) 0
x(10_138) 0
x(10_139) 0
x(10_140) 0
x(10_141) 0
x(10_142) 0
x(10_143) 0
x(10_144) 1
x(10_145) 0
x(10_146) 0
x(11_147) 0
x(11_148) 0
x(11_149) 0
x(11_150) 0
x(11_151) 0
x(11_152) 0
x(11_153) 0
x(11_154) 0
x(11_155) 0
x(11_156) 0
x(11_157) 0
x(11_158) 0
x(11_159) 0
x(11_160) 0
x(11_161) 1
x(11_162) 0
x(11_163) 0
x(12_164) 0
x(12_165) 0
x(12_166) 0
x(12_167) 0
x(12_168) 0
x(12_169) 0
x(12_170) 0
x(12_171) 0
x(12_172) 0
x(12_173) 0
x(12_174) 1
x(12_175) 0
x(12_176) 0
x(12_177) 0
x(12_178) 0
x(12_179) 0
x(12_180) 0
x(13_181) 0
x(13_182) 0
x(13_183) 0
x(13_184) 0
x(13_185) 0
x(13_186) 0
x(13_187) 0
x(13_188) 1
x(13_189) 0
x(13_190) 0
x(13_191) 0
x(13_192) 0
x(13_193) 0
x(13_194) 0
x(14_195) 1
x(14_196) 0
x(14_197) 0
x(14_198) 0
x(14_199) 0
x(14_200) 0
x(14_201) 0
x(14_202) 0
x(14_203) 0
x(14_204) 0
x(14_205) 0
x(14_206) 0
x(14_207) 0
x(14_208) 0
x(14_209) 0
x(14_210) 0
x(14_211) 0
x(14_212) 0
x(14_213) 0
x(14_214) 0
x(15_215) 0
x(15_216) 0
x(15_217) 0
x(15_218) 0
x(15_219) 1
x(15_220) 0
x(15_221) 0
x(15_222) 0
x(15_223) 0
x(15_224) 0
x(15_225) 0
x(15_226) 0
x(15_227) 0
x(15_228) 0
x(15_229) 0
x(15_230) 0
x(15_231) 0
x(16_232) 0
x(16_233) 0
x(16_234) 0
x(16_235) 0
x(16_236) 0
x(16_237) 0
x(16_238) 0
x(16_239) 0
x(16_240) 0
x(16_241) 0
x(16_242) 0
x(16_243) 1
x(16_244) 0
x(17_245) 0
x(17_246) 0
x(17_247) 0
x(17_248) 0
x(17_249) 0
x(17_250) 0
x(17_251) 0
x(17_252) 1
x(17_253) 0
x(17_254) 0
x(17_255) 0
x(17_256) 0
x(17_257) 0
x(17_258) 0
x(17_259) 0
x(17_260) 0
x(17_261) 0
x(17_262) 0
x(18_263) 0
x(18_264) 0
x(18_265) 0
x(18_266) 0
x(18_267) 0
x(18_268) 0
x(18_269) 1
x(18_270) 0
x(18_271) 0
x(18_272) 0
x(18_273) 0
x(18_274) 0
x(18_275) 0
x(19_276) 0
x(19_277) 0
x(19_278) 0
x(19_279) 0
x(19_280) 0
x(19_281) 0
x(19_282) 0
x(19_283) 0
x(19_284) 1
x(19_285) 0
x(19_286) 0
x(20_287) 0
x(20_288) 1
x(20_289) 0
x(20_290) 0
x(20_291) 0
x(20_292) 0
x(20_293) 0
x(20_294) 0
x(20_295) 0
x(20_296) 0
x(21_297) 0
x(21_298) 0
x(21_299) 0
x(21_300) 0
x(21_301) 1
x(21_302) 0
x(21_303) 0
x(21_304) 0
x(21_305) 0
x(21_306) 0
x(21_307) 0
x(21_308) 0
x(21_309) 0
x(22_310) 0
x(22_311) 0
x(22_312) 1
x(22_313) 0
x(22_314) 0
x(22_315) 0
x(22_316) 0
x(22_317) 0
x(22_318) 0
x(22_319) 0
x(22_320) 0
x(22_321) 0
x(22_322) 0
x(22_323) 0
x(22_324) 0
x(22_325) 0
x(22_326) 0
x(23_327) 0
x(23_328) 0
x(23_329) 0
x(23_330) 0
x(23_331) 0
x(23_332) 0
x(23_333) 0
x(23_334) 0
x(23_335) 0
x(23_336) 0
x(23_337) 0
x(23_338) 0
x(23_339) 0
x(23_340) 1
x(23_341) 0
x(23_342) 0
x(23_343) 0
x(23_344) 0
x(23_345) 0
x(24_346) 1
x(24_347) 0
x(24_348) 0
x(24_349) 0
x(24_350) 0
x(24_351) 0
x(24_352) 0
x(24_353) 0
x(24_354) 0
x(24_355) 0
x(24_356) 0
x(24_357) 0
x(24_358) 0
x(24_359) 0
x(25_360) 0
x(25_361) 0
x(25_362) 0
x(25_363) 0
x(25_364) 0
x(25_365) 0
x(25_366) 0
x(25_367) 0
x(25_368) 0
x(25_369) 1
x(26_370) 1
x(26_371) 0
x(26_372) 0
x(26_373) 0
x(26_374) 0
x(26_375) 0
x(26_376) 0
x(26_377) 0
x(26_378) 0
x(26_379) 0
x(26_380) 0
x(26_381) 0
x(27_382) 0
x(27_383) 0
x(27_384) 0
x(27_385) 0
x(27_386) 0
x(27_387) 0
x(27_388) 0
x(27_389) 0
x(27_390) 0
x(27_391) 0
x(27_392) 0
x(27_393) 0
x(27_394) 0
x(27_395) 1
x(27_396) 0
x(27_397) 0
x(27_398) 0
x(27_399) 0
x(27_400) 0
x(28_401) 0
x(28_402) 0
x(28_403) 0
x(28_404) 0
x(28_405) 0
x(28_406) 0
x(28_407) 0
x(28_408) 0
x(28_409) 0
x(28_410) 0
x(28_411) 1
x(28_412) 0
x(28_413) 0
x(28_414) 0
x(28_415) 0
x(28_416) 0
x(28_417) 0
x(29_418) 0
x(29_419) 0
x(29_420) 1
x(29_421) 0
x(29_422) 0
x(29_423) 0
x(29_424) 0
x(29_425) 0
x(29_426) 0
x(29_427) 0
x(29_428) 0
x(29_429) 0
x(29_430) 0
x(29_431) 0
x(29_432) 0
x(30_433) 0
x(30_434) 0
x(30_435) 0
x(30_436) 0
x(30_437) 0
x(30_438) 0
x(30_439) 0
x(30_440) 0
x(30_441) 0
x(30_442) 0
x(30_443) 0
x(30_444) 0
x(30_445) 0
x(30_446) 0
x(30_447) 1
x(30_448) 0
x(30_449) 0
x(30_450) 0
x(31_451) 0
x(31_452) 0
x(31_453) 0
x(31_454) 0
x(31_455) 0
x(31_456) 0
x(31_457) 1
x(31_458) 0
x(31_459) 0
x(31_460) 0
x(31_461) 0
x(31_462) 0
x(31_463) 0
x(31_464) 0
x(31_465) 0
x(31_466) 0
x(32_467) 0
x(32_468) 0
x(32_469) 0
x(32_470) 1
x(32_471) 0
x(32_472) 0
x(32_473) 0
x(32_474) 0
x(32_475) 0
x(32_476) 0
x(32_477) 0
x(33_478) 0
x(33_479) 0
x(33_480) 0
x(33_481) 0
x(33_482) 0
x(33_483) 0
x(33_484) 0
x(33_485) 0
x(33_486) 0
x(33_487) 0
x(33_488) 0
x(33_489) 0
x(33_490) 0
x(33_491) 0
x(33_492) 0
x(33_493) 0
x(33_494) 1
x(34_495) 1
x(34_496) 0
x(34_497) 0
x(34_498) 0
x(34_499) 0
x(34_500) 0
x(34_501) 0
x(34_502) 0
x(34_503) 0
x(34_504) 0
x(34_505) 0
x(35_506) 0
x(35_507) 0
x(35_508) 0
x(35_509) 0
x(35_510) 1
x(35_511) 0
x(35_512) 0
x(35_513) 0
x(35_514) 0
x(35_515) 0
x(35_516) 0
x(35_517) 0
x(35_518) 0
x(35_519) 0
x_1_0 1.5900140851177275e+02
s_1_0 0
z_1_0 0
x_1_1 0
s_1_1 0.46399595530238
z_1_1 1
x_1_2 0
s_1_2 5.9413425595266744e-01
z_1_2 1
x_1_3 0
s_1_3 4.2855441133724526e-01
z_1_3 1
x_1_4 0
s_1_4 9.1807693848386407e-01
z_1_4 1
x_1_5 1.5870777708105743e+02
s_1_5 0
z_1_5 0
x_1_6 1.5888615023717284e+02
s_1_6 0
z_1_6 0
x_1_7 0
s_1_7 8.5446034988854080e-01
z_1_7 1
x_1_8 0
s_1_8 6.1234061892901082e-01
z_1_8 1
x_1_9 0
s_1_9 1.0778078746516258e+00
z_1_9 1
x_1_10 1.5813018021360040e+02
s_1_10 0
z_1_10 0
x_1_11 1.6012943300697953e+02
s_1_11 0
z_1_11 0
x_1_12 1.5873127613635734e+02
s_1_12 0
z_1_12 0
x_1_13 0
s_1_13 1.0253264526836574e+00
z_1_13 1
x_1_14 0
s_1_14 9.8002438512048684e-01
z_1_14 1
x_1_15 1.5756700690183789e+02
s_1_15 0
z_1_15 0
x_1_16 1.5927430920489132e+02
s_1_16 0
z_1_16 0
x_1_17 1.6019379304349422e+02
s_1_17 0
z_1_17 0
x_1_18 0
s_1_18 8.6643275932874531e-01
z_1_18 1
x_1_19 1.5672740290313959e+02
s_1_19 0
z_1_19 0
x_1_20 0
s_1_20 6.0152045707218349e-01
z_1_20 1
x_1_21 0
s_1_21 8.5359499722835608e-01
z_1_21 1
x_1_22 0
s_1_22 7.3276826128130779e-01
z_1_22 1
x_1_23 1.6035851645097136e+02
s_1_23 0
z_1_23 0
x_1_24 1.5839469908463070e+02
s_1_24 0
z_1_24 0
x_1_25 1.5703405664488673e+02
s_1_25 0
z_1_25 0
x_1_26 1.5888297228608280e+02
s_1_26 0
z_1_26 0
x_1_27 0
s_1_27 8.8395442720502615e-01
z_1_27 1
x_1_28 159.003369608894
s_1_28 0
z_1_28 0
x_1_29 1.5624944169446826e+02
s_1_29 0
z_1_29 0
x_1_30 0
s_1_30 8.0915844463743269e-01
z_1_30 1
x_1_31 1.5920534233376384e+02
s_1_31 0
z_1_31 0
x_1_32 0
s_1_32 1.0748410181695363e+00
z_1_32 1
x_1_33 0
s_1_33 7.5397509778849781e-01
z_1_33 1
x_1_34 1.5888069377280772e+02
s_1_34 0
z_1_34 0
x_1_35 0
s_1_35 0.962230674456805
z_1_35 1
x_1_36 1.5889191663637757e+02
s_1_36 0
z_1_36 0
x_1_37 1.5784463487192988e+02
s_1_37 0
z_1_37 0
x_1_38 160.052244247403
s_1_38 0
z_1_38 0
x_1_39 0
s_1_39 8.4689340926706791e-01
z_1_39 1
x_1_40 1.5918214757554233e+02
s_1_40 0
z_1_40 0
x_1_41 1.5869479806954041e+02
s_1_41 0
z_1_41 0
x_1_42 1.5826061340048909e+02
s_1_42 0
z_1_42 0
x_1_43 1.5902098288387060e+02
s_1_43 0
z_1_43 0
x_1_44 0
s_1_44 7.5862252083607018e-01
z_1_44 1
x_1_45 1.5878439703211188e+02
s_1_45 0
z_1_45 0
x_1_46 0
s_1_46 8.3553859074891079e-01
z_1_46 1
x_1_47 0
s_1_47 8.0574907921254635e-01
z_1_47 1
x_1_48 0
s_1_48 5.7697512209415436e-01
z_1_48 1
x_1_49 0
s_1_49 6.8865338573232293e-01
z_1_49 1
x_1_50 1.5969010494556278e+02
s_1_50 0
z_1_50 0
x_1_51 0
s_1_51 2.5658431707415730e-01
z_1_51 1
x_1_52 1.5896902266307734e+02
s_1_52 0
z_1_52 0
x_1_53 0
s_1_53 6.7302532929170411e-01
z_1_53 1
x_1_54 0
s_1_54 5.6004076584576978e-01
z_1_54 1
x_1_55 1.5826638749241829e+02
s_1_55 0
z_1_55 0
x_1_56 0
s_1_56 1.1173496425617486e+00
z_1_56 1
x_1_57 0
s_1_57 7.2853743867017329e-01
z_1_57 1
x_1_58 1.5835385144129395e+02
s_1_58 0
z_1_58 0
x_1_59 1.5953101404570043e+02
s_1_59 0
z_1_59 0
x_1_60 1.6011891802493483e+02
s_1_60 0
z_1_60 0
x_1_61 1.5798740314692259e+02
s_1_61 0
z_1_61 0
x_1_62 1.6031939619220793e+02
s_1_62 0
z_1_62 0
x_1_63 0
s_1_63 8.3667410549242049e-01
z_1_63 1
x_1_64 1.5962463371455669e+02
s_1_64 0
z_1_64 0
x_1_65 1.5921806656382978e+02
s_1_65 0
z_1_65 0
x_1_66 0
s_1_66 1.5173179355915636e+00
z_1_66 1
x_1_67 1.5901405569165945e+02
s_1_67 0
z_1_67 0
x_1_68 0
s_1_68 5.0036535988328978e-01
z_1_68 1
x_1_69 1.5845995904970914e+02
s_1_69 0
z_1_69 0
x_1_70 1.5959798956289887e+02
s_1_70 0
z_1_70 0
x_1_71 1.5864602779597044e+02
s_1_71 0
z_1_71 0
x_1_72 0
s_1_72 1.0890266618225724e+00
z_1_72 1
x_1_73 1.5813772288337350e+02
s_1_73 0
z_1_73 0
x_1_74 1.5884523752331734e+02
s_1_74 0
z_1_74 0
x_1_75 1.6007966755609959e+02
s_1_75 0
z_1_75 0
x_1_76 1.5889113442471717e+02
s_1_76 0
z_1_76 0
x_1_77 1.5924275941355154e+02
s_1_77 0
z_1_77 0
x_1_78 0
s_1_78 6.1188876535743475e-01
z_1_78 1
x_1_79 0
s_1_79 6.7060845857486129e-01
z_1_79 1
x_1_80 0
s_1_80 1.0168170817196369e+00
z_1_80 1
x_1_81 1.5891074991039932e+02
s_1_81 0
z_1_81 0
x_1_82 0
s_1_82 9.7279249224811792e-01
z_1_82 1
x_1_83 1.5927460564672947e+02
s_1_83 0
z_1_83 0
x_1_84 1.5710430752357934e+02
s_1_84 0
z_1_84 0
x_1_85 0
s_1_85 7.9074004478752613e-01
z_1_85 1
x_1_86 0
s_1_86 6.7576453555375338e-01
z_1_86 1
x_1_87 1.6013490926846862e+02
s_1_87 0
z_1_87 0
x_1_88 0
s_1_88 1.1218634920660406e+00
z_1_88 1
x_1_89 0
s_1_89 7.8272848809137940e-01
z_1_89 1
x_1_90 0
s_1_90 0.916642856085673
z_1_90 1
x_1_91 1.5792880288511515e+02
s_1_91 0
z_1_91 0
x_1_92 1.5586088917404413e+02
s_1_92 0
z_1_92 0
x_1_93 1.5952653848193586e+02
s_1_93 0
z_1_93 0
x_1_94 0
s_1_94 9.4685433831182308e-01
z_1_94 1
x_1_95 1.5885406894702464e+02
s_1_95 0
z_1_95 0
x_1_96 0
s_1_96 9.5601529674604535e-01
z_1_96 1
x_1_97 0
s_1_97 7.9411566650378518e-01
z_1_97 1
x_1_98 1.5876625549420714e+02
s_1_98 0
z_1_98 0
x_1_99 0
s_1_99 1.0769300642423332e+00
z_1_99 1
x_1_100 1.5792739675007761e+02
s_1_100 0
z_1_100 0
x_1_101 1.5877209820225835e+02
s_1_101 0
z_1_101 0
x_1_102 1.5957228531595320e+02
s_1_102 0
z_1_102 0
x_1_103 1.5787188456952572e+02
s_1_103 0
z_1_103 0
x_1_104 1.5459990668203682e+02
s_1_104 0
z_1_104 0
x_1_105 1.5864108418300748e+02
s_1_105 0
z_1_105 0
x_1_106 1.6010125935450196e+02
s_1_106 0
z_1_106 0
x_1_107 1.5772582611069083e+02
s_1_107 0
z_1_107 0
x_1_108 1.5855448212102056e+02
s_1_108 0
z_1_108 0
x_1_109 0
s_1_109 3.6379017191939056e-01
z_1_109 1
x_1_110 0
s_1_110 8.2327399670612067e-01
z_1_110 1
x_1_111 1.5956331078708172e+02
s_1_111 0
z_1_111 0
x_1_112 1.5785826279968023e+02
s_1_112 0
z_1_112 0
x_1_113 0
s_1_113 5.6695252977078781e-01
z_1_113 1
x_1_114 0
s_1_114 3.9117827452719212e-01
z_1_114 1
x_1_115 1.5888155675679445e+02
s_1_115 0
z_1_115 0
x_1_116 1.5807288645021617e+02
s_1_116 0
z_1_116 0
x_1_117 0
s_1_117 7.0359207410365343e-01
z_1_117 1
x_1_118 1.5957981301471591e+02
s_1_118 0
z_1_118 0
x_1_119 1.5821511803194880e+02
s_1_119 0
z_1_119 0
x_1_120 1.5996877708472311e+02
s_1_120 0
z_1_120 0
x_1_121 1.5925604973267764e+02
s_1_121 0
z_1_121 0
x_1_122 1.5785408776491386e+02
s_1_122 0
z_1_122 0
x_1_123 158.486991006881
s_1_123 0
z_1_123 0
x_1_124 0
s_1_124 1.3333843424916267e+00
z_1_124 1
x_1_125 1.5992851469013840e+02
s_1_125 0
z_1_125 0
x_1_126 1.6007647400675341e+02
s_1_126 0
z_1_126 0
x_1_127 1.5881018331646919e+02
s_1_127 0
z_1_127 0
x_1_128 0
s_1_128 6.9121250428725034e-01
z_1_128 1
x_1_129 1.5952876701625064e+02
s_1_129 0
z_1_129 0
x_1_130 0
s_1_130 6.5569153841352090e-01
z_1_130 1
x_1_131 1.5824364869669080e+02
s_1_131 0
z_1_131 0
x_1_132 1.5865957599226385e+02
s_1_132 0
z_1_132 0
x_1_133 1.5872069586068392e+02
s_1_133 0
z_1_133 0
x_1_134 1.5844796168245375e+02
s_1_134 0
z_1_134 0
x_1_135 0
s_1_135 3.7106923246756196e-01
z_1_135 1
x_1_136 0
s_1_136 8.1883591820951551e-01
z_1_136 1
x_1_137 1.5871678309049457e+02
s_1_137 0
z_1_137 0
x_1_138 0
s_1_138 7.7441616123542190e-01
z_1_138 1
x_1_139 0
s_1_139 8.2321823050733656e-01
z_1_139 1
x_1_140 1.5939631733018905e+02
s_1_140 0
z_1_140 0
x_1_141 0
s_1_141 7.8734271576104220e-01
z_1_141 1
x_1_142 1.5942819468304515e+02
s_1_142 0
z_1_142 0
x_1_143 1.5781520524434745e+02
s_1_143 0
z_1_143 0
x_1_144 0
s_1_144 7.9531969153322279e-01
z_1_144 1
x_1_145 1.6007985002920032e+02
s_1_145 0
z_1_145 0
x_1_146 1.5929538363590837e+02
s_1_146 0
z_1_146 0
x_1_147 1.5911265813931823e+02
s_1_147 0
z_1_147 0
x_1_148 1.5883168199472129e+02
s_1_148 0
z_1_148 0
x_1_149 0
s_1_149 3.8709706327063031e-01
z_1_149 1
x_1_150 1.5920543161593378e+02
s_1_150 0
z_1_150 0
x_1_151 0
s_1_151 7.5242201867513359e-01
z_1_151 1
x_1_152 158.0746364519
s_1_152 0
z_1_152 0
x_1_153 1.5801112160086632e+02
s_1_153 0
z_1_153 0
x_1_154 1.5998429288854823e+02
s_1_154 0
z_1_154 0
x_1_155 0
s_1_155 9.3875876616220921e-01
z_1_155 1
x_1_156 0
s_1_156 5.7700781058520079e-01
z_1_156 1
x_1_157 1.5973023905232549e+02
s_1_157 0
z_1_157 0
x_1_158 1.5784697976708412e+02
s_1_158 0
z_1_158 0
x_1_159 0
s_1_159 6.9045033103611786e-01
z_1_159 1
x_2_0 9.4576136992423708e+04
